NAME : mEgtspf.pid30931.gtsp.161061374.tour
COMMENT : Length = 161061374
COMMENT : Found by LKH [Keld Helsgaun] Fri Mar  7 02:51:33 2025
TYPE : TOUR
DIMENSION : 90
TOUR_SECTION
1
36
37
38
35
6
55
56
57
58
75
76
77
78
52
53
54
51
60
61
62
59
41
42
39
40
11
12
13
14
5
20
21
22
19
9
65
66
63
64
32
33
34
31
80
81
82
79
72
73
74
71
8
10
69
70
67
68
24
25
26
23
28
29
30
27
88
89
90
87
16
17
18
15
49
50
47
48
3
83
84
85
86
4
2
46
43
44
45
7
-1
EOF
